python/teste/teste39
3 3
2 1 1 9 0 8
0 2 2 8 1 8
2 9 0 9 1 10
